============================[ Problem Statistics ]=============================|                                                                             ||  Number of variables:          4242                                         ||  Number of clauses:            9719                                         ||  Parse time:                   0.12 s                                       ||                                                                             |============================[ Search Statistics ]==============================| Conflicts |          ORIGINAL         |          LEARNT          | Progress ||           |    Vars  Clauses Literals |    Limit  Clauses Lit/Cl |          |==============================================================================================================================================================restarts              : 1conflicts             : 75             (375 /sec)decisions             : 163            (0.00 % random) (815 /sec)propagations          : 8195           (40975 /sec)conflict literals     : 3729           (95.96 % deleted)CPU time              : 0.2 sSATISFIABLE